p cnf 82 124
-42 17 0
-42 18 0
42 -17 -18 0
-43 13 0
-43 14 0
43 -13 -14 0
-44 9 0
-44 10 0
44 -9 -10 0
-45 5 0
-45 6 0
45 -5 -6 0
-46 3 0
-46 4 0
46 -3 -4 0
-47 1 0
-47 2 0
47 -1 -2 0
-48 -46 0
-48 -47 0
48 46 47 0
-49 -45 0
-49 48 0
49 45 -48 0
-50 7 0
-50 8 0
50 -7 -8 0
-51 49 0
-51 -50 0
51 -49 50 0
-52 -44 0
-52 51 0
52 44 -51 0
-53 11 0
-53 12 0
53 -11 -12 0
-54 52 0
-54 -53 0
54 -52 53 0
-55 -43 0
-55 54 0
55 43 -54 0
-56 15 0
-56 16 0
56 -15 -16 0
-57 55 0
-57 -56 0
57 -55 56 0
-58 -42 0
-58 57 0
58 42 -57 0
-59 19 0
-59 20 0
59 -19 -20 0
-60 58 0
-60 -59 0
60 -58 59 0
-61 41 0
-61 -60 0
61 -41 60 0
-62 39 0
-62 40 0
62 -39 -40 0
-63 37 0
-63 38 0
63 -37 -38 0
-64 31 0
-64 32 0
64 -31 -32 0
-65 29 0
-65 30 0
65 -29 -30 0
-66 25 0
-66 26 0
66 -25 -26 0
-67 21 0
-67 22 0
67 -21 -22 0
-68 23 0
-68 24 0
68 -23 -24 0
-69 -67 0
-69 -68 0
69 67 68 0
-70 -66 0
-70 69 0
70 66 -69 0
-71 27 0
-71 28 0
71 -27 -28 0
-72 70 0
-72 -71 0
72 -70 71 0
-73 -65 0
-73 72 0
73 65 -72 0
-74 -64 0
-74 73 0
74 64 -73 0
-75 33 0
-75 34 0
75 -33 -34 0
-76 74 0
-76 -75 0
76 -74 75 0
-77 35 0
-77 36 0
77 -35 -36 0
-78 76 0
-78 -77 0
78 -76 77 0
-79 -63 0
-79 78 0
79 63 -78 0
-80 -62 0
-80 79 0
80 62 -79 0
-81 -41 0
-81 -80 0
81 41 80 0
-82 -61 0
-82 -81 0
82 61 81 0
-82 0
